#######################################
### Exact MIP solver for the HHCRSP ###
#######################################
-- Instance file: new-instances/HHCRSP_100_20_14_1.6_C_RC.txt
-- Max threads: 4
-- Time limit: 999999 seconds
-- Use initial solution: No
Trivial flow violations prevented generating 46901 variables.
Model exported.
Version identifier: 20.1.0.0 | 2020-11-10 | 9bedb6d68
CPXPARAM_Threads                                 4
CPXPARAM_TimeLimit                               999999
Parallel mode: deterministic, using up to 4 threads for concurrent optimization:
 * Starting dual Simplex on 1 thread...
 * Starting Barrier on 3 threads...
Tried aggregator 1 time.
LP Presolve eliminated 5364 rows and 1320 columns.
Reduced LP has 49410 rows, 47359 columns, and 561482 nonzeros.
Presolve time = 0.52 sec. (145.69 ticks)
Symmetry aggregator did 55531 additional substitutions.

Iteration log . . .
Iteration:     1   Dual objective     =             0.000000

Dual crossover.
  Dual:  Fixing 252 variables.
      251 DMoves:  Infeasibility  5.53446220e-14  Objective  1.89000000e+02
        0 DMoves:  Infeasibility  5.31796871e-14  Objective  1.89000000e+02
  Dual:  Pushed 11, exchanged 241.
  Primal:  Fixing 109 variables.
      108 PMoves:  Infeasibility  8.32667268e-16  Objective  1.89000000e+02
        0 PMoves:  Infeasibility  9.99200722e-16  Objective  1.89000000e+02
  Primal:  Pushed 56, exchanged 53.

Dual simplex solved model.


Solution status from MIP model:
-- Processing time: 0.78 sec.
-- Memory used: 102.375 MB
-- Best bound: inf
-- Obj value: 189
-- Gap: inf%
-- Total distance: 567
-- Total tardiness: 0
-- Largest tardiness: 0
